30272913820653537 -1 0
h 2 -3 0
h -4 5 0
h -6 7 0
91681502381835902 -8 0
h 9 10 0
h 11 4 0
h 1 0
24082750843838494 -2 0
37483875325775090 -10 0
h -9 3 0
91710786019038533 -7 0
h 8 0
h -4 6 0
95963281599785272 -11 0
50619514915990573 -5 0
